p cnf 123 434
-3 -1 0
-3 -2 0
1 2 3 0
5 3 0
5 4 0
-3 -4 -5 0
-7 6 0
-7 -3 0
-6 3 7 0
-9 4 0
-9 8 0
-4 -8 9 0
11 9 0
11 10 0
-9 -10 -11 0
-7 -11 -12 0
7 11 -12 0
-7 11 12 0
7 -11 12 0
-14 -12 0
-14 -13 0
12 13 14 0
-15 5 0
-15 14 0
-5 -14 15 0
-16 -15 0
-16 -14 0
15 14 16 0
-17 -13 0
-17 -1 0
13 1 17 0
-17 18 0
17 18 0
3 18 -19 0
-3 -18 -19 0
3 -18 19 0
-3 18 19 0
-20 16 0
-20 -19 0
-16 19 20 0
-22 21 0
-22 8 0
-21 -8 22 0
-23 9 0
-23 -9 0
24 -22 0
24 23 0
22 -23 -24 0
20 -24 -25 0
-20 24 -25 0
20 24 25 0
-20 -24 25 0
26 -8 0
26 4 0
8 -4 -26 0
6 26 -27 0
-6 -26 -27 0
6 -26 27 0
-6 26 27 0
-28 -27 0
-28 -7 0
27 7 28 0
29 28 0
29 15 0
-28 -15 -29 0
31 -3 0
31 -13 0
3 13 -31 0
32 -30 0
32 -31 0
30 31 -32 0
-10 -32 -33 0
10 32 -33 0
-10 32 33 0
10 -32 33 0
-35 -19 0
-35 9 0
19 -9 35 0
-36 -34 0
-36 35 0
34 -35 36 0
10 -6 -37 0
-10 6 -37 0
10 6 37 0
-10 -6 37 0
37 21 -38 0
-37 -21 -38 0
37 -21 38 0
-37 21 38 0
-36 -38 -39 0
36 38 -39 0
-36 38 39 0
36 -38 39 0
40 33 0
40 -39 0
-33 39 -40 0
43 -41 0
43 -42 0
41 42 -43 0
-19 -43 -44 0
19 43 -44 0
-19 43 44 0
19 -43 44 0
45 -44 0
45 7 0
44 -7 -45 0
45 34 -46 0
-45 -34 -46 0
45 -34 46 0
-45 34 46 0
-5 47 -48 0
5 -47 -48 0
-5 -47 48 0
5 47 48 0
46 48 -49 0
-46 -48 -49 0
46 -48 49 0
-46 48 49 0
-40 49 -50 0
40 -49 -50 0
-40 -49 50 0
40 49 50 0
-51 29 0
-51 50 0
-29 -50 51 0
-52 -18 0
-52 14 0
18 -14 52 0
-53 44 0
-53 21 0
-44 -21 53 0
-18 -10 -54 0
18 10 -54 0
-18 10 54 0
18 -10 54 0
55 54 0
55 -42 0
-54 42 -55 0
56 55 0
56 54 0
-55 -54 -56 0
-57 -53 0
-57 -56 0
53 56 57 0
-58 52 0
-58 57 0
-52 -57 58 0
-59 -3 0
-59 -6 0
3 6 59 0
60 5 0
60 47 0
-5 -47 -60 0
59 -60 -61 0
-59 60 -61 0
59 60 61 0
-59 -60 61 0
62 -6 0
62 -23 0
6 23 -62 0
-19 -1 -63 0
19 1 -63 0
-19 1 63 0
19 -1 63 0
64 -62 0
64 -63 0
62 63 -64 0
-64 -31 -65 0
64 31 -65 0
-64 31 65 0
64 -31 65 0
66 47 0
66 -41 0
-47 41 -66 0
-67 -66 0
-67 -13 0
66 13 67 0
-8 67 -68 0
8 -67 -68 0
-8 -67 68 0
8 67 68 0
69 -44 0
69 -68 0
44 68 -69 0
70 -69 0
70 -26 0
69 26 -70 0
-19 42 -71 0
19 -42 -71 0
-19 -42 71 0
19 42 71 0
70 -71 -72 0
-70 71 -72 0
70 71 72 0
-70 -71 72 0
-73 -65 0
-73 -72 0
65 72 73 0
61 73 -74 0
-61 -73 -74 0
61 -73 74 0
-61 73 74 0
75 -10 0
75 55 0
10 -55 -75 0
76 -22 0
76 -1 0
22 1 -76 0
77 43 0
77 76 0
-43 -76 -77 0
78 77 0
78 -62 0
-77 62 -78 0
79 -75 0
79 78 0
75 -78 -79 0
-80 74 0
-80 79 0
-74 -79 80 0
37 -26 -81 0
-37 26 -81 0
37 26 81 0
-37 -26 81 0
-76 6 -82 0
76 -6 -82 0
-76 -6 82 0
76 6 82 0
-83 -15 0
-83 13 0
15 -13 83 0
-85 84 0
-85 -12 0
-84 12 85 0
-86 83 0
-86 -85 0
-83 85 86 0
-87 82 0
-87 86 0
-82 -86 87 0
88 -4 0
88 42 0
4 -42 -88 0
-89 -44 0
-89 -88 0
44 88 89 0
87 89 -90 0
-87 -89 -90 0
87 -89 90 0
-87 89 90 0
-76 -13 -91 0
76 13 -91 0
-76 13 91 0
76 -13 91 0
-92 63 0
-92 -23 0
-63 23 92 0
-92 -37 -93 0
92 37 -93 0
-92 37 93 0
92 -37 93 0
94 -91 0
94 93 0
91 -93 -94 0
-95 -90 0
-95 -94 0
90 94 95 0
96 -81 0
96 95 0
81 -95 -96 0
12 -15 -97 0
-12 15 -97 0
12 15 97 0
-12 -15 97 0
-98 76 0
-98 -34 0
-76 34 98 0
91 98 -99 0
-91 -98 -99 0
91 -98 99 0
-91 98 99 0
-100 23 0
-100 -2 0
-23 2 100 0
-101 36 0
-101 100 0
-36 -100 101 0
18 6 -102 0
-18 -6 -102 0
18 -6 102 0
-18 6 102 0
103 102 0
103 35 0
-102 -35 -103 0
104 101 0
104 -103 0
-101 103 -104 0
37 88 -105 0
-37 -88 -105 0
37 -88 105 0
-37 88 105 0
-106 -104 0
-106 105 0
104 -105 106 0
107 -99 0
107 -106 0
99 106 -107 0
108 97 0
108 -107 0
-97 107 -108 0
-109 -88 0
-109 -17 0
88 17 109 0
110 91 0
110 -2 0
-91 2 -110 0
111 -109 0
111 -110 0
109 110 -111 0
112 -62 0
112 14 0
62 -14 -112 0
113 -47 0
113 54 0
47 -54 -113 0
114 112 0
114 -113 0
-112 113 -114 0
115 111 0
115 114 0
-111 -114 -115 0
62 11 -116 0
-62 -11 -116 0
62 -11 116 0
-62 11 116 0
-117 115 0
-117 -116 0
-115 116 117 0
-118 108 0
-118 117 0
-108 -117 118 0
96 -118 -119 0
-96 118 -119 0
96 118 119 0
-96 -118 119 0
-80 119 -120 0
80 -119 -120 0
-80 -119 120 0
80 119 120 0
58 -120 -121 0
-58 120 -121 0
58 120 121 0
-58 -120 121 0
-51 -121 -122 0
51 121 -122 0
-51 121 122 0
51 -121 122 0
25 122 -123 0
-25 -122 -123 0
25 -122 123 0
-25 122 123 0
-94 -34 86 35 -39 0
-23 81 13 0
-107 65 50 -10 0
25 8 0
5 -16 0
17 52 22 -44 31 0
36 122 -97 99 0
-9 44 0
-110 -94 -73 -12 0
11 -73 -43 108 90 0
-111 -93 0
-3 22 -70 -96 0
-54 23 26 -41 100 68 0
88 -32 97 -74 0
108 -100 74 110 103 0
34 -123 0
-27 109 -95 -18 -117 0
-30 27 -54 -57 -117 70 0
-19 46 -90 43 113 0
-33 -63 119 11 0
-71 -15 45 21 0
89 40 -7 117 0
88 116 0
-62 60 -99 -56 0
110 -4 36 26 -15 0
24 95 116 -6 0
45 41 66 98 -2 0
36 102 77 -60 44 0
87 60 -66 0
110 34 105 0
-89 -52 86 -55 0
-31 67 120 -98 117 0
40 -2 -24 37 0
-6 3 0
83 34 118 0
12 104 -76 0
42 35 -28 -83 46 0
92 44 -34 -52 -86 100 0
66 30 0
-40 -119 58 -25 0
-59 48 -10 64 94 0
46 -49 29 0
-68 106 -12 0
-106 -77 -86 -121 0
119 -121 -95 97 38 0
108 -115 -96 105 0
-116 -92 29 104 -15 -100 0
11 97 118 0
-18 -114 0
20 91 -110 -98 75 106 0
-73 -123 -98 0
80 -46 15 -16 -24 0
97 120 95 96 89 0
63 -22 0
64 20 117 42 -33 70 0
-83 -118 77 52 0
120 26 90 -85 0
-21 -85 0
-50 84 40 -113 -99 0
-61 -33 36 -26 -55 0
-48 25 0
57 -33 0
122 -100 0
112 -114 0
-57 -58 121 0
51 58 -59 -108 -21 0
-50 84 -5 21 -119 0
-22 -24 -64 35 51 0
113 -114 123 0
-57 41 2 70 110 0
88 -109 -69 -77 -56 -60 0
100 -27 -122 -13 0
123 0
